p edge 13 43
e 1 7
e 1 8
e 1 9
e 1 10
e 1 13
e 2 3
e 2 4
e 2 7
e 2 10
e 2 12
e 3 4
e 3 8
e 3 9
e 3 10
e 4 5
e 4 6
e 4 8
e 4 10
e 4 13
e 5 6
e 5 7
e 5 8
e 5 9
e 5 10
e 5 12
e 5 13
e 6 7
e 6 8
e 6 9
e 6 10
e 6 12
e 6 13
e 7 12
e 8 9
e 8 10
e 8 11
e 8 12
e 8 13
e 9 11
e 9 13
e 10 12
e 11 12
e 11 13
